WARNING: for repeatability, setting FPU to use double precision
============================[ Problem Statistics ]=============================
|                                                                             |
|  Number of symmetries:          11                                          |
|  Number of invertingSyms:        0                                          |
|  Number of variables:            42                                         |
|  Number of clauses:             133                                         |
|  Parse time:                   0.00 s                                       |
|                                                                             |
============================[ Search Statistics ]==============================
| Conflicts |          ORIGINAL         |          LEARNT          | Progress |
|           |    Vars  Clauses Literals |    Limit  Clauses Lit/Cl |          |
===============================================================================
|       100 |      42      133      294 |       48       33     10 |  0.058 % |
===============================================================================
restarts              : 2
conflicts             : 129            (inf /sec)
symconflicts          : 14             (inf /sec)
decisions             : 181            (0.00 % random) (inf /sec)
propagations          : 1966           (inf /sec)
sympropagations       : 65             (inf /sec)
conflict literals     : 1542           (4.70 % deleted)
Memory used           : 5.00 MB
CPU time              : 0 s

UNSATISFIABLE
